
Gurobi 11.0.3 (linux64) logging started Sun Aug 24 14:34:31 2025

Set parameter LogFile to value "/home/yihong/Coding/OR_SUC/SUC_ALSO_results_bigM100000_thread4/case24_ieee_rts_theta0.1_epsilon0.2_gurobi_seed10000_num_gen10_N_WDR50_load_scaling_factor2_bonferroni_T2quadra_cost.txt"
Set parameter TimeLimit to value 3600
Gurobi Optimizer version 11.0.3 build v11.0.3rc0 (linux64 - "Ubuntu 20.04.6 LTS")

CPU model: AMD EPYC 7532 32-Core Processor, instruction set [SSE2|AVX|AVX2]
Thread count: 64 physical cores, 128 logical processors, using up to 4 threads

Academic license 2399124 - for non-commercial use only - registered to yi___@ed.ac.uk
Optimize a model with 578 rows, 320 columns and 3840 nonzeros
Model fingerprint: 0x0065c842
Model has 20 quadratic constraints
Variable types: 300 continuous, 20 integer (20 binary)
Coefficient statistics:
  Matrix range     [1e-04, 3e+04]
  QMatrix range    [2e-03, 7e-03]
  QLMatrix range   [1e+00, 4e+02]
  Objective range  [1e+00, 1e+00]
  Bounds range     [1e+00, 1e+00]
  RHS range        [1e+00, 6e+03]
Presolve removed 495 rows and 182 columns
Presolve time: 0.00s

Explored 0 nodes (0 simplex iterations) in 0.04 seconds (0.00 work units)
Thread count was 1 (of 128 available processors)

Solution count 0

Model is infeasible or unbounded
Best objective -, best bound -, gap -
